c Graph colouring
c
c edges;1,10;2,10;3,10;4,10;5,10;6,10;7,10;8,10;9,10
c n = number of vertices = 10
c m = number of edges = 9
c k = number of colours = 3
c vertex i=0,...,n-1 has colour c=0,...,k-1 if variable i*k+c+1 True
c
c We have nk=30 variables and n+(k^2-k)n/2+mk=67 clauses.
c
p cnf 30 67
1 2 3 0
4 5 6 0
7 8 9 0
10 11 12 0
13 14 15 0
16 17 18 0
19 20 21 0
22 23 24 0
25 26 27 0
28 29 30 0
-15 -13 0
-3 -1 0
-3 -2 0
-24 -23 0
-18 -17 0
-30 -29 0
-15 -14 0
-6 -5 0
-18 -16 0
-20 -19 0
-12 -11 0
-27 -25 0
-24 -22 0
-8 -7 0
-2 -1 0
-29 -28 0
-17 -16 0
-30 -28 0
-21 -19 0
-9 -7 0
-12 -10 0
-27 -26 0
-6 -4 0
-23 -22 0
-14 -13 0
-9 -8 0
-21 -20 0
-26 -25 0
-11 -10 0
-5 -4 0
-28 -22 0
-28 -4 0
-30 -12 0
-29 -2 0
-28 -16 0
-29 -23 0
-28 -7 0
-30 -18 0
-30 -15 0
-29 -20 0
-30 -21 0
-29 -14 0
-28 -1 0
-29 -17 0
-28 -25 0
-30 -3 0
-30 -24 0
-29 -11 0
-28 -10 0
-30 -27 0
-30 -6 0
-29 -8 0
-28 -13 0
-28 -19 0
-30 -9 0
-29 -26 0
-29 -5 0
